MATILDA_Graphs/g0001.col
c File: data_files/evolved_graphs/g0001.col
c
c Auto generated graph
c
p edge 100 1902
e 1 2
e 1 6
e 1 10
e 1 11
e 1 18
e 1 19
e 1 21
e 1 22
e 1 23
e 1 28
e 1 29
e 1 30
e 1 40
e 1 47
e 1 49
e 1 51
e 1 53
e 1 54
e 1 59
e 1 66
e 1 68
e 1 70
e 1 72
e 1 73
e 1 74
e 1 77
e 1 78
e 1 82
e 1 88
e 1 93
e 1 94
e 1 95
e 1 97
e 1 98
e 1 99
e 1 100
e 2 3
e 2 8
e 2 9
e 2 17
e 2 19
e 2 29
e 2 31
e 2 32
e 2 34
e 2 37
e 2 38
e 2 41
e 2 42
e 2 43
e 2 44
e 2 48
e 2 50
e 2 52
e 2 54
e 2 55
e 2 56
e 2 58
e 2 61
e 2 62
e 2 65
e 2 69
e 2 70
e 2 72
e 2 73
e 2 74
e 2 75
e 2 76
e 2 78
e 2 80
e 2 81
e 2 83
e 2 85
e 2 94
e 2 97
e 3 4
e 3 6
e 3 10
e 3 11
e 3 15
e 3 18
e 3 19
e 3 22
e 3 27
e 3 28
e 3 30
e 3 37
e 3 38
e 3 39
e 3 42
e 3 44
e 3 45
e 3 46
e 3 50
e 3 51
e 3 52
e 3 54
e 3 58
e 3 59
e 3 60
e 3 61
e 3 62
e 3 67
e 3 70
e 3 71
e 3 72
e 3 73
e 3 81
e 3 82
e 3 83
e 3 85
e 3 88
e 3 93
e 3 95
e 3 99
e 3 100
e 4 5
e 4 12
e 4 13
e 4 17
e 4 21
e 4 22
e 4 24
e 4 31
e 4 34
e 4 36
e 4 40
e 4 43
e 4 45
e 4 47
e 4 48
e 4 49
e 4 52
e 4 54
e 4 57
e 4 59
e 4 61
e 4 65
e 4 66
e 4 70
e 4 73
e 4 74
e 4 76
e 4 78
e 4 80
e 4 84
e 4 86
e 4 88
e 4 90
e 4 92
e 4 94
e 4 97
e 4 100
e 5 15
e 5 16
e 5 21
e 5 23
e 5 25
e 5 26
e 5 30
e 5 37
e 5 39
e 5 41
e 5 51
e 5 54
e 5 58
e 5 61
e 5 65
e 5 66
e 5 74
e 5 75
e 5 79
e 5 82
e 5 85
e 5 88
e 5 92
e 5 93
e 5 98
e 5 100
e 6 9
e 6 11
e 6 12
e 6 19
e 6 21
e 6 26
e 6 27
e 6 31
e 6 36
e 6 42
e 6 43
e 6 48
e 6 49
e 6 50
e 6 54
e 6 59
e 6 64
e 6 66
e 6 67
e 6 73
e 6 77
e 6 82
e 6 86
e 6 87
e 6 91
e 6 94
e 6 95
e 6 100
e 7 14
e 7 16
e 7 17
e 7 20
e 7 22
e 7 23
e 7 25
e 7 26
e 7 35
e 7 38
e 7 39
e 7 41
e 7 43
e 7 45
e 7 49
e 7 50
e 7 55
e 7 57
e 7 58
e 7 60
e 7 63
e 7 73
e 7 75
e 7 77
e 7 79
e 7 80
e 7 81
e 7 85
e 7 89
e 7 91
e 7 92
e 7 95
e 7 97
e 7 100
e 8 10
e 8 11
e 8 12
e 8 16
e 8 18
e 8 20
e 8 26
e 8 30
e 8 37
e 8 41
e 8 44
e 8 48
e 8 50
e 8 52
e 8 53
e 8 60
e 8 62
e 8 64
e 8 72
e 8 81
e 8 86
e 8 88
e 8 90
e 8 94
e 8 95
e 8 96
e 8 100
e 9 13
e 9 14
e 9 15
e 9 17
e 9 19
e 9 20
e 9 21
e 9 22
e 9 26
e 9 28
e 9 29
e 9 30
e 9 31
e 9 33
e 9 38
e 9 39
e 9 43
e 9 47
e 9 50
e 9 55
e 9 59
e 9 60
e 9 61
e 9 67
e 9 71
e 9 72
e 9 74
e 9 76
e 9 78
e 9 80
e 9 82
e 9 83
e 9 86
e 9 89
e 9 91
e 9 94
e 9 96
e 9 97
e 10 13
e 10 15
e 10 16
e 10 18
e 10 20
e 10 33
e 10 36
e 10 38
e 10 40
e 10 44
e 10 45
e 10 46
e 10 48
e 10 54
e 10 56
e 10 58
e 10 60
e 10 61
e 10 62
e 10 63
e 10 67
e 10 68
e 10 69
e 10 70
e 10 71
e 10 72
e 10 73
e 10 76
e 10 78
e 10 79
e 10 81
e 10 84
e 10 85
e 10 88
e 10 91
e 10 93
e 10 96
e 10 97
e 11 12
e 11 14
e 11 15
e 11 17
e 11 20
e 11 21
e 11 23
e 11 27
e 11 33
e 11 36
e 11 40
e 11 43
e 11 48
e 11 49
e 11 50
e 11 55
e 11 58
e 11 59
e 11 61
e 11 66
e 11 67
e 11 73
e 11 76
e 11 79
e 11 80
e 11 81
e 11 90
e 11 92
e 11 96
e 11 97
e 12 13
e 12 15
e 12 19
e 12 20
e 12 26
e 12 35
e 12 36
e 12 38
e 12 40
e 12 46
e 12 47
e 12 51
e 12 53
e 12 55
e 12 56
e 12 57
e 12 58
e 12 60
e 12 63
e 12 65
e 12 68
e 12 70
e 12 71
e 12 74
e 12 76
e 12 80
e 12 86
e 12 93
e 12 98
e 13 14
e 13 18
e 13 19
e 13 22
e 13 23
e 13 28
e 13 33
e 13 35
e 13 37
e 13 39
e 13 42
e 13 45
e 13 50
e 13 52
e 13 53
e 13 54
e 13 56
e 13 57
e 13 58
e 13 60
e 13 64
e 13 66
e 13 67
e 13 68
e 13 73
e 13 76
e 13 79
e 13 81
e 13 84
e 13 86
e 13 87
e 13 88
e 13 90
e 13 92
e 13 95
e 13 96
e 13 98
e 14 15
e 14 22
e 14 23
e 14 25
e 14 26
e 14 28
e 14 29
e 14 31
e 14 32
e 14 37
e 14 39
e 14 40
e 14 41
e 14 45
e 14 50
e 14 54
e 14 59
e 14 60
e 14 62
e 14 64
e 14 68
e 14 70
e 14 72
e 14 74
e 14 78
e 14 88
e 14 90
e 14 91
e 14 95
e 14 97
e 14 100
e 15 17
e 15 18
e 15 20
e 15 22
e 15 24
e 15 25
e 15 26
e 15 27
e 15 28
e 15 31
e 15 38
e 15 39
e 15 40
e 15 43
e 15 44
e 15 50
e 15 53
e 15 54
e 15 59
e 15 60
e 15 62
e 15 63
e 15 66
e 15 69
e 15 73
e 15 76
e 15 80
e 15 85
e 15 87
e 15 88
e 15 89
e 15 90
e 15 96
e 15 97
e 16 24
e 16 25
e 16 26
e 16 27
e 16 28
e 16 32
e 16 34
e 16 37
e 16 42
e 16 47
e 16 49
e 16 50
e 16 52
e 16 57
e 16 59
e 16 60
e 16 63
e 16 65
e 16 68
e 16 70
e 16 71
e 16 72
e 16 75
e 16 76
e 16 78
e 16 79
e 16 83
e 16 86
e 16 88
e 16 92
e 16 93
e 16 94
e 16 95
e 16 97
e 17 19
e 17 20
e 17 21
e 17 22
e 17 24
e 17 25
e 17 27
e 17 33
e 17 35
e 17 36
e 17 41
e 17 42
e 17 44
e 17 47
e 17 53
e 17 54
e 17 55
e 17 56
e 17 59
e 17 69
e 17 70
e 17 71
e 17 73
e 17 78
e 17 79
e 17 80
e 17 81
e 17 87
e 17 89
e 17 90
e 17 93
e 17 94
e 17 96
e 17 97
e 17 98
e 17 99
e 17 100
e 18 19
e 18 23
e 18 25
e 18 27
e 18 28
e 18 29
e 18 30
e 18 32
e 18 33
e 18 36
e 18 37
e 18 38
e 18 40
e 18 44
e 18 47
e 18 49
e 18 50
e 18 60
e 18 63
e 18 64
e 18 66
e 18 67
e 18 68
e 18 69
e 18 70
e 18 71
e 18 73
e 18 75
e 18 76
e 18 81
e 18 82
e 18 83
e 18 85
e 18 86
e 18 88
e 18 91
e 18 100
e 19 30
e 19 32
e 19 39
e 19 40
e 19 43
e 19 46
e 19 48
e 19 52
e 19 56
e 19 58
e 19 59
e 19 63
e 19 67
e 19 70
e 19 71
e 19 74
e 19 76
e 19 78
e 19 79
e 19 81
e 19 88
e 19 90
e 19 93
e 19 95
e 19 97
e 19 98
e 19 99
e 20 22
e 20 23
e 20 25
e 20 27
e 20 28
e 20 30
e 20 37
e 20 39
e 20 41
e 20 46
e 20 49
e 20 51
e 20 52
e 20 58
e 20 59
e 20 60
e 20 62
e 20 63
e 20 66
e 20 69
e 20 70
e 20 74
e 20 76
e 20 77
e 20 80
e 20 82
e 20 85
e 20 88
e 20 91
e 20 93
e 20 100
e 21 27
e 21 28
e 21 29
e 21 30
e 21 31
e 21 33
e 21 36
e 21 37
e 21 39
e 21 41
e 21 42
e 21 46
e 21 47
e 21 49
e 21 53
e 21 54
e 21 55
e 21 62
e 21 65
e 21 66
e 21 67
e 21 72
e 21 73
e 21 74
e 21 75
e 21 79
e 21 80
e 21 87
e 21 88
e 21 93
e 21 95
e 21 97
e 21 98
e 21 99
e 21 100
e 22 23
e 22 24
e 22 25
e 22 26
e 22 28
e 22 31
e 22 32
e 22 34
e 22 35
e 22 39
e 22 41
e 22 43
e 22 51
e 22 52
e 22 53
e 22 56
e 22 63
e 22 69
e 22 71
e 22 73
e 22 74
e 22 76
e 22 79
e 22 81
e 22 83
e 22 84
e 22 88
e 22 90
e 22 93
e 22 99
e 22 100
e 23 25
e 23 26
e 23 28
e 23 29
e 23 30
e 23 31
e 23 32
e 23 35
e 23 38
e 23 40
e 23 41
e 23 43
e 23 47
e 23 49
e 23 51
e 23 53
e 23 54
e 23 61
e 23 65
e 23 66
e 23 67
e 23 68
e 23 69
e 23 75
e 23 76
e 23 79
e 23 84
e 23 86
e 23 88
e 23 99
e 23 100
e 24 25
e 24 26
e 24 27
e 24 31
e 24 32
e 24 34
e 24 35
e 24 36
e 24 37
e 24 39
e 24 40
e 24 42
e 24 45
e 24 47
e 24 51
e 24 53
e 24 54
e 24 60
e 24 61
e 24 72
e 24 75
e 24 76
e 24 77
e 24 78
e 24 85
e 24 86
e 24 88
e 24 89
e 24 90
e 24 92
e 24 98
e 24 99
e 25 27
e 25 28
e 25 33
e 25 36
e 25 38
e 25 42
e 25 43
e 25 44
e 25 45
e 25 48
e 25 51
e 25 52
e 25 54
e 25 57
e 25 58
e 25 59
e 25 62
e 25 64
e 25 66
e 25 68
e 25 77
e 25 79
e 25 81
e 25 82
e 25 86
e 25 91
e 25 94
e 25 96
e 25 97
e 25 98
e 25 100
e 26 30
e 26 33
e 26 35
e 26 39
e 26 40
e 26 41
e 26 44
e 26 45
e 26 48
e 26 49
e 26 50
e 26 52
e 26 54
e 26 55
e 26 59
e 26 61
e 26 65
e 26 68
e 26 71
e 26 74
e 26 77
e 26 78
e 26 79
e 26 80
e 26 85
e 26 87
e 26 88
e 26 91
e 26 94
e 26 95
e 26 96
e 26 97
e 27 30
e 27 36
e 27 37
e 27 39
e 27 41
e 27 42
e 27 46
e 27 47
e 27 53
e 27 54
e 27 55
e 27 57
e 27 61
e 27 65
e 27 66
e 27 68
e 27 70
e 27 71
e 27 72
e 27 78
e 27 79
e 27 89
e 27 93
e 27 97
e 27 99
e 28 31
e 28 32
e 28 35
e 28 37
e 28 38
e 28 40
e 28 41
e 28 42
e 28 43
e 28 54
e 28 59
e 28 60
e 28 61
e 28 62
e 28 64
e 28 65
e 28 67
e 28 69
e 28 72
e 28 73
e 28 75
e 28 79
e 28 82
e 28 83
e 28 89
e 28 90
e 28 93
e 28 94
e 28 95
e 28 97
e 28 98
e 28 100
e 29 31
e 29 32
e 29 34
e 29 41
e 29 43
e 29 45
e 29 47
e 29 48
e 29 50
e 29 51
e 29 52
e 29 54
e 29 57
e 29 58
e 29 59
e 29 62
e 29 63
e 29 65
e 29 67
e 29 77
e 29 80
e 29 81
e 29 82
e 29 84
e 29 88
e 29 96
e 29 97
e 29 100
e 30 31
e 30 33
e 30 35
e 30 38
e 30 39
e 30 40
e 30 44
e 30 49
e 30 51
e 30 52
e 30 56
e 30 57
e 30 60
e 30 61
e 30 68
e 30 69
e 30 70
e 30 75
e 30 78
e 30 81
e 30 82
e 30 86
e 30 90
e 30 92
e 30 94
e 30 95
e 30 96
e 30 97
e 30 99
e 30 100
e 31 35
e 31 36
e 31 37
e 31 41
e 31 42
e 31 46
e 31 56
e 31 57
e 31 59
e 31 60
e 31 61
e 31 66
e 31 68
e 31 69
e 31 73
e 31 74
e 31 75
e 31 77
e 31 79
e 31 81
e 31 82
e 31 85
e 31 86
e 31 88
e 31 89
e 31 90
e 31 96
e 32 35
e 32 36
e 32 40
e 32 41
e 32 44
e 32 49
e 32 55
e 32 60
e 32 61
e 32 62
e 32 66
e 32 67
e 32 68
e 32 71
e 32 75
e 32 78
e 32 81
e 32 82
e 32 83
e 32 84
e 32 87
e 32 88
e 32 89
e 32 90
e 32 93
e 32 94
e 32 99
e 33 37
e 33 38
e 33 44
e 33 48
e 33 49
e 33 53
e 33 57
e 33 61
e 33 62
e 33 67
e 33 71
e 33 72
e 33 75
e 33 77
e 33 78
e 33 80
e 33 82
e 33 84
e 33 85
e 33 96
e 33 97
e 33 98
e 33 100
e 34 35
e 34 36
e 34 38
e 34 39
e 34 42
e 34 48
e 34 50
e 34 51
e 34 52
e 34 53
e 34 56
e 34 58
e 34 62
e 34 64
e 34 76
e 34 78
e 34 81
e 34 85
e 34 92
e 34 94
e 34 99
e 34 100
e 35 36
e 35 49
e 35 52
e 35 53
e 35 54
e 35 57
e 35 59
e 35 60
e 35 61
e 35 65
e 35 69
e 35 70
e 35 72
e 35 73
e 35 75
e 35 76
e 35 79
e 35 80
e 35 81
e 35 84
e 35 86
e 35 89
e 35 90
e 35 93
e 35 94
e 35 95
e 35 96
e 36 39
e 36 41
e 36 42
e 36 46
e 36 47
e 36 48
e 36 49
e 36 51
e 36 53
e 36 58
e 36 59
e 36 60
e 36 61
e 36 64
e 36 65
e 36 71
e 36 74
e 36 76
e 36 78
e 36 80
e 36 82
e 36 86
e 36 88
e 36 89
e 36 90
e 36 93
e 36 94
e 36 100
e 37 39
e 37 46
e 37 52
e 37 53
e 37 54
e 37 55
e 37 56
e 37 64
e 37 65
e 37 66
e 37 69
e 37 70
e 37 73
e 37 74
e 37 79
e 37 81
e 37 84
e 37 89
e 37 96
e 38 42
e 38 45
e 38 49
e 38 51
e 38 55
e 38 56
e 38 61
e 38 64
e 38 70
e 38 72
e 38 75
e 38 78
e 38 83
e 38 84
e 38 86
e 38 87
e 38 88
e 38 91
e 38 96
e 38 97
e 38 99
e 39 40
e 39 41
e 39 42
e 39 43
e 39 44
e 39 49
e 39 50
e 39 58
e 39 61
e 39 63
e 39 65
e 39 66
e 39 69
e 39 71
e 39 74
e 39 80
e 39 84
e 39 87
e 39 89
e 39 90
e 39 92
e 39 93
e 39 96
e 39 97
e 40 42
e 40 43
e 40 51
e 40 52
e 40 54
e 40 58
e 40 60
e 40 61
e 40 69
e 40 71
e 40 75
e 40 77
e 40 79
e 40 80
e 40 81
e 40 85
e 40 89
e 40 90
e 40 91
e 40 92
e 40 93
e 40 95
e 40 99
e 40 100
e 41 42
e 41 43
e 41 44
e 41 45
e 41 47
e 41 48
e 41 50
e 41 51
e 41 52
e 41 53
e 41 65
e 41 68
e 41 69
e 41 70
e 41 73
e 41 77
e 41 80
e 41 81
e 41 87
e 41 90
e 41 92
e 41 99
e 42 44
e 42 45
e 42 46
e 42 51
e 42 53
e 42 54
e 42 66
e 42 69
e 42 71
e 42 76
e 42 78
e 42 79
e 42 81
e 42 82
e 42 86
e 42 87
e 42 89
e 42 93
e 42 96
e 42 97
e 42 98
e 42 99
e 43 47
e 43 49
e 43 50
e 43 54
e 43 55
e 43 56
e 43 58
e 43 60
e 43 61
e 43 64
e 43 71
e 43 74
e 43 84
e 43 86
e 43 87
e 43 91
e 43 92
e 43 94
e 43 95
e 43 97
e 43 98
e 44 47
e 44 48
e 44 50
e 44 52
e 44 56
e 44 57
e 44 58
e 44 61
e 44 63
e 44 64
e 44 67
e 44 70
e 44 71
e 44 73
e 44 74
e 44 75
e 44 79
e 44 85
e 44 89
e 44 90
e 44 91
e 44 92
e 44 94
e 44 96
e 44 99
e 44 100
e 45 46
e 45 47
e 45 48
e 45 51
e 45 54
e 45 56
e 45 57
e 45 60
e 45 64
e 45 67
e 45 69
e 45 70
e 45 75
e 45 76
e 45 78
e 45 81
e 45 85
e 45 86
e 45 91
e 45 94
e 45 99
e 45 100
e 46 48
e 46 49
e 46 61
e 46 63
e 46 71
e 46 72
e 46 74
e 46 76
e 46 80
e 46 81
e 46 86
e 46 87
e 46 95
e 47 48
e 47 51
e 47 53
e 47 57
e 47 58
e 47 60
e 47 62
e 47 63
e 47 70
e 47 73
e 47 77
e 47 82
e 47 83
e 47 84
e 47 85
e 47 86
e 47 87
e 47 88
e 47 90
e 47 92
e 47 95
e 48 54
e 48 56
e 48 57
e 48 59
e 48 65
e 48 67
e 48 68
e 48 69
e 48 71
e 48 73
e 48 74
e 48 76
e 48 77
e 48 78
e 48 80
e 48 81
e 48 83
e 48 90
e 48 91
e 48 98
e 49 52
e 49 59
e 49 60
e 49 63
e 49 65
e 49 68
e 49 73
e 49 74
e 49 79
e 49 81
e 49 82
e 49 83
e 49 84
e 49 86
e 49 90
e 49 96
e 49 97
e 49 98
e 49 99
e 50 54
e 50 55
e 50 56
e 50 58
e 50 59
e 50 60
e 50 61
e 50 65
e 50 70
e 50 71
e 50 72
e 50 73
e 50 75
e 50 77
e 50 79
e 50 83
e 50 87
e 50 88
e 50 90
e 50 92
e 50 93
e 50 98
e 51 52
e 51 55
e 51 59
e 51 62
e 51 63
e 51 64
e 51 65
e 51 66
e 51 67
e 51 70
e 51 74
e 51 76
e 51 79
e 51 81
e 51 85
e 51 86
e 51 90
e 51 91
e 51 92
e 51 94
e 51 97
e 51 98
e 51 99
e 52 53
e 52 63
e 52 64
e 52 68
e 52 69
e 52 70
e 52 72
e 52 73
e 52 75
e 52 79
e 52 81
e 52 86
e 52 91
e 52 94
e 52 97
e 52 99
e 53 56
e 53 57
e 53 58
e 53 60
e 53 62
e 53 63
e 53 64
e 53 70
e 53 72
e 53 73
e 53 81
e 53 82
e 53 83
e 53 84
e 53 89
e 53 90
e 53 91
e 53 96
e 53 99
e 54 55
e 54 62
e 54 65
e 54 67
e 54 68
e 54 69
e 54 71
e 54 72
e 54 73
e 54 74
e 54 75
e 54 76
e 54 84
e 54 85
e 54 88
e 54 90
e 54 92
e 54 94
e 54 100
e 55 59
e 55 64
e 55 66
e 55 67
e 55 68
e 55 69
e 55 70
e 55 71
e 55 84
e 55 85
e 55 89
e 55 90
e 55 91
e 55 94
e 55 95
e 55 97
e 55 98
e 55 99
e 55 100
e 56 58
e 56 65
e 56 66
e 56 68
e 56 74
e 56 75
e 56 77
e 56 78
e 56 79
e 56 80
e 56 82
e 56 85
e 56 87
e 56 89
e 56 90
e 56 94
e 56 95
e 57 59
e 57 62
e 57 63
e 57 64
e 57 76
e 57 78
e 57 79
e 57 81
e 57 82
e 57 84
e 57 87
e 57 89
e 57 92
e 57 97
e 57 99
e 58 59
e 58 62
e 58 65
e 58 68
e 58 70
e 58 72
e 58 74
e 58 79
e 58 88
e 58 94
e 58 95
e 58 96
e 58 98
e 59 60
e 59 63
e 59 66
e 59 70
e 59 71
e 59 72
e 59 73
e 59 74
e 59 75
e 59 77
e 59 79
e 59 81
e 59 84
e 59 85
e 59 89
e 59 93
e 59 95
e 59 97
e 60 63
e 60 64
e 60 65
e 60 66
e 60 70
e 60 76
e 60 77
e 60 78
e 60 79
e 60 83
e 60 84
e 60 88
e 60 97
e 60 98
e 61 62
e 61 67
e 61 68
e 61 70
e 61 71
e 61 72
e 61 73
e 61 75
e 61 77
e 61 78
e 61 79
e 61 80
e 61 82
e 61 86
e 61 87
e 61 89
e 61 92
e 61 93
e 61 94
e 61 96
e 61 99
e 61 100
e 62 63
e 62 68
e 62 71
e 62 73
e 62 74
e 62 76
e 62 77
e 62 79
e 62 86
e 62 88
e 62 89
e 62 93
e 62 95
e 62 99
e 62 100
e 63 65
e 63 68
e 63 71
e 63 75
e 63 77
e 63 78
e 63 79
e 63 81
e 63 82
e 63 85
e 63 89
e 63 91
e 63 93
e 63 96
e 64 68
e 64 73
e 64 76
e 64 77
e 64 79
e 64 80
e 64 81
e 64 83
e 64 85
e 64 87
e 64 89
e 64 95
e 64 98
e 65 68
e 65 72
e 65 88
e 65 90
e 65 91
e 65 92
e 66 75
e 66 76
e 66 77
e 66 79
e 66 81
e 66 83
e 66 85
e 66 87
e 66 92
e 66 93
e 66 96
e 66 100
e 67 72
e 67 73
e 67 74
e 67 75
e 67 76
e 67 77
e 67 78
e 67 79
e 67 84
e 67 85
e 67 86
e 67 90
e 67 97
e 67 98
e 67 99
e 68 69
e 68 70
e 68 71
e 68 73
e 68 74
e 68 75
e 68 76
e 68 80
e 68 81
e 68 83
e 68 84
e 68 86
e 68 88
e 68 94
e 68 95
e 68 98
e 68 100
e 69 71
e 69 74
e 69 75
e 69 78
e 69 83
e 69 89
e 69 98
e 70 71
e 70 76
e 70 77
e 70 78
e 70 81
e 70 82
e 70 83
e 70 86
e 70 89
e 70 93
e 70 98
e 71 74
e 71 76
e 71 77
e 71 79
e 71 80
e 71 83
e 71 84
e 71 87
e 71 93
e 71 94
e 71 95
e 71 96
e 71 97
e 71 100
e 72 74
e 72 76
e 72 77
e 72 78
e 72 81
e 72 82
e 72 84
e 72 85
e 72 86
e 72 94
e 72 99
e 73 76
e 73 77
e 73 79
e 73 81
e 73 83
e 73 84
e 73 87
e 73 95
e 73 96
e 73 98
e 73 99
e 74 78
e 74 83
e 74 86
e 74 92
e 74 96
e 74 98
e 74 99
e 75 77
e 75 80
e 75 82
e 75 86
e 75 88
e 75 91
e 75 92
e 75 97
e 75 98
e 75 99
e 76 77
e 76 78
e 76 79
e 76 83
e 76 88
e 76 89
e 76 94
e 76 95
e 76 96
e 76 97
e 76 98
e 77 78
e 77 82
e 77 87
e 77 89
e 77 91
e 77 92
e 77 95
e 78 80
e 78 82
e 78 84
e 78 87
e 78 91
e 78 92
e 78 94
e 78 96
e 78 98
e 78 100
e 79 81
e 79 83
e 79 86
e 79 89
e 79 90
e 79 97
e 79 98
e 79 99
e 79 100
e 80 84
e 80 89
e 80 90
e 80 93
e 80 98
e 81 82
e 81 83
e 81 85
e 81 90
e 81 92
e 81 93
e 81 95
e 82 87
e 82 90
e 82 91
e 82 97
e 82 99
e 82 100
e 83 84
e 83 87
e 83 88
e 83 90
e 83 91
e 83 93
e 83 94
e 83 95
e 83 97
e 83 100
e 84 85
e 84 95
e 84 97
e 84 98
e 85 88
e 85 96
e 85 99
e 86 88
e 86 90
e 86 91
e 86 94
e 86 97
e 86 98
e 86 100
e 87 89
e 87 93
e 87 94
e 87 95
e 87 96
e 88 90
e 88 96
e 88 98
e 89 96
e 89 98
e 90 91
e 90 92
e 90 94
e 90 95
e 90 97
e 90 98
e 91 92
e 91 93
e 91 95
e 91 96
e 91 99
e 92 94
e 92 97
e 92 99
e 93 96
e 93 99
e 93 100
e 94 95
e 94 96
e 94 97
e 95 98
e 96 97
e 96 98
e 96 99
e 96 100
e 97 98
e 98 100
