MATILDA_Graphs/g0001.sol
SET_INDEX
363
1453
20255
34467
45676
46455
47503
64316
66371
69213
72980
74834
EOF
